Traveling Salesman Problem/TSP_generados/Aleatorio1620390870_6.tsp
NAME: Aleatorio1620390870_6.tsp
COMMENT: Randomly generated scenario
TYPE: TSP
DIMENSION: 6
EDGE_WEIGHT_TYPE: ATT
NODE_COORD_SECTION
1 30.88 36.12
2 4.33 47.1
3 14.25 28.88
4 7.71 33.21
5 32.19 29.28
6 11.36 13.46
