Traveling Salesman Problem/TSP_generados/Aleatorio1620390870_6.opt.tour
NAME: Aleatorio1620390870_6.opt.tour
COMMENT: Optimal solution for Aleatorio1620390870_6 (99.67897849378404)
TYPE: TOUR
DIMENSION: 6
TOUR_SECTION
1 5 6 3 4 2
-1
EOF
